54
50
35
53
47
23
88
84
91
56
69
57
74
39
68
21
87
19
61
51
2
44
42
79
6
17
85
8
48
10
15
40
77
11
65
95
96
62
89
1
18
3
99
63
66
55
64
92
25
86
20
7
9
33
60
72
32
90
78
49
29
75
80
58
0
24
31
4
70
5
12
52
34
76
46
22
30
71
16
41
93
38
37
43
82
98
28
73
36
14
94
45
81
83
67
59
27
26
97
13
